
<<< setup


<<< generate

Version identifier: 22.1.1.0 | 2022-11-28 | 9160aff4d
CPXPARAM_TimeLimit                               1800
CPXPARAM_MIP_Tolerances_MIPGap                   0.01
Found incumbent of value 0.000000 after 0.00 sec. (0.14 ticks)
Tried aggregator 2 times.
MIP Presolve eliminated 50 rows and 0 columns.
Aggregator did 2500 substitutions.
Reduced MIP has 101 rows, 2500 columns, and 7500 nonzeros.
Reduced MIP has 2500 binaries, 0 generals, 0 SOSs, and 0 indicators.
Presolve time = 0.02 sec. (13.40 ticks)
Tried aggregator 1 time.
Detecting symmetries...
Reduced MIP has 101 rows, 2500 columns, and 7500 nonzeros.
Reduced MIP has 2500 binaries, 0 generals, 0 SOSs, and 0 indicators.
Presolve time = 0.01 sec. (7.99 ticks)
Probing time = 0.00 sec. (3.09 ticks)
Clique table members: 100.
MIP emphasis: balance optimality and feasibility.
MIP search method: dynamic search.
Parallel mode: deterministic, using up to 8 threads.
Root relaxation solution time = 0.02 sec. (5.06 ticks)

        Nodes                                         Cuts/
   Node  Left     Objective  IInf  Best Integer    Best Bound    ItCnt     Gap

*     0+    0                            0.0000   127700.0000              --- 
      0     0     2113.5000     3        0.0000     2113.5000      145     --- 
*     0+    0                         2105.0000     2113.5000             0.40%

Root node processing (before b&c):
  Real time             =    0.08 sec. (44.09 ticks)
Parallel b&c, 8 threads:
  Real time             =    0.00 sec. (0.00 ticks)
  Sync time (average)   =    0.00 sec.
  Wait time (average)   =    0.00 sec.
                          ------------
Total (root+branch&cut) =    0.08 sec. (44.09 ticks)

<<< solve


OBJECTIVE: 2105
42444.43.47.20.3121391306.298.151912401442..27.25183262.17..22.11.9....550

<<< post process


<<< done

